set BUSES := 1 2 3 4;
set SLOTS := 1 2 3;
set WORKSHOPS := 1 2;

param Shared_passengers :=
[1, 1] 0
[1, 2] 5
[1, 3] 2
[1, 4] 3
[2, 1] 5
[2, 2] 0
[2, 3] 1
[2, 4] 4
[3, 1] 2
[3, 2] 1
[3, 3] 0
[3, 4] 2
[4, 1] 3
[4, 2] 4
[4, 3] 2
[4, 4] 0
;

param Available_slots :=
[1, 1] 1
[1, 2] 1
[2, 1] 1
[2, 2] 0
[3, 1] 1
[3, 2] 1
;

